\ENCODING=ISO-8859-1
\Problem name: 

Minimize
 obj: x0,0 + x1,1 + x2,2 + x3,3 + x4,4 + x5,5 + x6,6 + x7,7 + x8,8 + x9,9
      + x10,10 + x11,11
Subject To
 rep0:         x0,0 + x1,0 + x3,0 + x4,0 + x5,0 + x7,0 + x8,0 + x11,0 >= 1
 rep1:         x0,1 + x1,1 + x3,1 + x6,1 + x9,1 + x10,1 >= 1
 rep2:         x2,2 + x6,2 + x9,2 + x10,2 + x11,2 >= 1
 rep3:         x0,3 + x1,3 + x3,3 + x7,3 + x8,3 + x9,3 + x10,3 >= 1
 rep4:         x0,4 + x4,4 + x8,4 + x11,4 >= 1
 rep5:         x0,5 + x5,5 + x6,5 + x8,5 + x9,5 + x11,5 >= 1
 rep6:         x1,6 + x2,6 + x5,6 + x6,6 + x7,6 + x8,6 + x9,6 + x10,6 + x11,6
               >= 1
 rep7:         x0,7 + x3,7 + x6,7 + x7,7 + x9,7 + x10,7 >= 1
 rep8:         x0,8 + x3,8 + x4,8 + x5,8 + x6,8 + x8,8 + x11,8 >= 1
 rep9:         x1,9 + x2,9 + x3,9 + x5,9 + x6,9 + x7,9 + x9,9 >= 1
 rep10:        x1,10 + x2,10 + x3,10 + x6,10 + x7,10 + x10,10 + x11,10 >= 1
 rep11:        x0,11 + x2,11 + x4,11 + x5,11 + x6,11 + x8,11 + x10,11 + x11,11
               >= 1
 uqrep0_1,4:   - x0,0 + x0,1 + x0,4 <= 0
 uqrep0_1,5:   - x0,0 + x0,1 + x0,5 <= 0
 uqrep0_1,7:   - x0,0 + x0,1 + x0,7 <= 0
 uqrep0_1,8:   - x0,0 + x0,1 + x0,8 <= 0
 uqrep0_1,11:  - x0,0 + x0,1 + x0,11 <= 0
 uqrep0_3,11:  - x0,0 + x0,3 + x0,11 <= 0
 uqrep0_3,4:   - x0,0 + x0,3 + x0,4 <= 0
 uqrep0_3,5:   - x0,0 + x0,3 + x0,5 <= 0
 uqrep0_4,5:   - x0,0 + x0,4 + x0,5 <= 0
 uqrep0_4,7:   - x0,0 + x0,4 + x0,7 <= 0
 uqrep0_5,7:   - x0,0 + x0,5 + x0,7 <= 0
 uqrep0_7,8:   - x0,0 + x0,7 + x0,8 <= 0
 uqrep0_7,11:  - x0,0 + x0,7 + x0,11 <= 0
 uqrep1_0,9:   x1,0 - x1,1 + x1,9 <= 0
 uqrep1_0,10:  x1,0 - x1,1 + x1,10 <= 0
 uqrep1_0,6:   x1,0 - x1,1 + x1,6 <= 0
 uqrep1_9,10:  - x1,1 + x1,9 + x1,10 <= 0
 uqrep1_3,6:   - x1,1 + x1,3 + x1,6 <= 0
 uqrep2_9,10:  - x2,2 + x2,9 + x2,10 <= 0
 uqrep2_9,11:  - x2,2 + x2,9 + x2,11 <= 0
 uqrep3_0,9:   x3,0 - x3,3 + x3,9 <= 0
 uqrep3_0,10:  x3,0 - x3,3 + x3,10 <= 0
 uqrep3_1,7:   x3,1 - x3,3 + x3,7 <= 0
 uqrep3_1,8:   x3,1 - x3,3 + x3,8 <= 0
 uqrep3_7,8:   - x3,3 + x3,7 + x3,8 <= 0
 uqrep3_8,9:   - x3,3 + x3,8 + x3,9 <= 0
 uqrep3_8,10:  - x3,3 + x3,8 + x3,10 <= 0
 uqrep3_9,10:  - x3,3 + x3,9 + x3,10 <= 0
 uqrep5_0,9:   x5,0 - x5,5 + x5,9 <= 0
 uqrep5_0,6:   x5,0 - x5,5 + x5,6 <= 0
 uqrep5_8,9:   - x5,5 + x5,8 + x5,9 <= 0
 uqrep5_11,9:  - x5,5 + x5,9 + x5,11 <= 0
 uqrep6_1,2:   x6,1 + x6,2 - x6,6 <= 0
 uqrep6_1,5:   x6,1 + x6,5 - x6,6 <= 0
 uqrep6_1,7:   x6,1 - x6,6 + x6,7 <= 0
 uqrep6_1,8:   x6,1 - x6,6 + x6,8 <= 0
 uqrep6_1,11:  x6,1 - x6,6 + x6,11 <= 0
 uqrep6_2,5:   x6,2 + x6,5 - x6,6 <= 0
 uqrep6_2,7:   x6,2 - x6,6 + x6,7 <= 0
 uqrep6_2,8:   x6,2 - x6,6 + x6,8 <= 0
 uqrep6_5,7:   x6,5 - x6,6 + x6,7 <= 0
 uqrep6_5,10:  x6,5 - x6,6 + x6,10 <= 0
 uqrep6_7,8:   - x6,6 + x6,7 + x6,8 <= 0
 uqrep6_7,11:  - x6,6 + x6,7 + x6,11 <= 0
 uqrep6_8,9:   - x6,6 + x6,8 + x6,9 <= 0
 uqrep6_8,10:  - x6,6 + x6,8 + x6,10 <= 0
 uqrep6_9,10:  - x6,6 + x6,9 + x6,10 <= 0
 uqrep6_9,11:  - x6,6 + x6,9 + x6,11 <= 0
 uqrep7_0,9:   x7,0 - x7,7 + x7,9 <= 0
 uqrep7_0,10:  x7,0 - x7,7 + x7,10 <= 0
 uqrep7_0,6:   x7,0 + x7,6 - x7,7 <= 0
 uqrep7_9,10:  - x7,7 + x7,9 + x7,10 <= 0
 uqrep7_3,6:   x7,3 + x7,6 - x7,7 <= 0
 uqrep8_0,6:   x8,0 + x8,6 - x8,8 <= 0
 uqrep8_3,11:  x8,3 - x8,8 + x8,11 <= 0
 uqrep8_3,4:   x8,3 + x8,4 - x8,8 <= 0
 uqrep8_3,5:   x8,3 + x8,5 - x8,8 <= 0
 uqrep8_3,6:   x8,3 + x8,6 - x8,8 <= 0
 uqrep8_4,5:   x8,4 + x8,5 - x8,8 <= 0
 uqrep8_4,6:   x8,4 + x8,6 - x8,8 <= 0
 uqrep9_1,2:   x9,1 + x9,2 - x9,9 <= 0
 uqrep9_1,5:   x9,1 + x9,5 - x9,9 <= 0
 uqrep9_1,7:   x9,1 + x9,7 - x9,9 <= 0
 uqrep9_2,3:   x9,2 + x9,3 - x9,9 <= 0
 uqrep9_2,5:   x9,2 + x9,5 - x9,9 <= 0
 uqrep9_2,7:   x9,2 + x9,7 - x9,9 <= 0
 uqrep9_3,5:   x9,3 + x9,5 - x9,9 <= 0
 uqrep9_3,6:   x9,3 + x9,6 - x9,9 <= 0
 uqrep9_5,7:   x9,5 + x9,7 - x9,9 <= 0
 uqrep10_1,2:  x10,1 + x10,2 - x10,10 <= 0
 uqrep10_1,7:  x10,1 + x10,7 - x10,10 <= 0
 uqrep10_1,11: x10,1 - x10,10 + x10,11 <= 0
 uqrep10_2,3:  x10,2 + x10,3 - x10,10 <= 0
 uqrep10_2,7:  x10,2 + x10,7 - x10,10 <= 0
 uqrep10_3,11: x10,3 - x10,10 + x10,11 <= 0
 uqrep10_3,6:  x10,3 + x10,6 - x10,10 <= 0
 uqrep10_7,11: x10,7 - x10,10 + x10,11 <= 0
 uqrep11_0,2:  x11,0 + x11,2 - x11,11 <= 0
 uqrep11_0,10: x11,0 + x11,10 - x11,11 <= 0
 uqrep11_0,6:  x11,0 + x11,6 - x11,11 <= 0
 uqrep11_2,4:  x11,2 + x11,4 - x11,11 <= 0
 uqrep11_2,5:  x11,2 + x11,5 - x11,11 <= 0
 uqrep11_2,8:  x11,2 + x11,8 - x11,11 <= 0
 uqrep11_4,5:  x11,4 + x11,5 - x11,11 <= 0
 uqrep11_4,6:  x11,4 + x11,6 - x11,11 <= 0
 uqrep11_4,10: x11,4 + x11,10 - x11,11 <= 0
 uqrep11_5,10: x11,5 + x11,10 - x11,11 <= 0
 uqrep11_8,10: x11,8 + x11,10 - x11,11 <= 0
Bounds
 0 <= x0,0 <= 1
 0 <= x0,1 <= 1
 0 <= x0,3 <= 1
 0 <= x0,4 <= 1
 0 <= x0,5 <= 1
 0 <= x0,7 <= 1
 0 <= x0,8 <= 1
 0 <= x0,11 <= 1
 0 <= x1,0 <= 1
 0 <= x1,1 <= 1
 0 <= x1,3 <= 1
 0 <= x1,6 <= 1
 0 <= x1,9 <= 1
 0 <= x1,10 <= 1
 0 <= x2,2 <= 1
 0 <= x2,6 <= 1
 0 <= x2,9 <= 1
 0 <= x2,10 <= 1
 0 <= x2,11 <= 1
 0 <= x3,0 <= 1
 0 <= x3,1 <= 1
 0 <= x3,3 <= 1
 0 <= x3,7 <= 1
 0 <= x3,8 <= 1
 0 <= x3,9 <= 1
 0 <= x3,10 <= 1
 0 <= x4,0 <= 1
 0 <= x4,4 <= 1
 0 <= x4,8 <= 1
 0 <= x4,11 <= 1
 0 <= x5,0 <= 1
 0 <= x5,5 <= 1
 0 <= x5,6 <= 1
 0 <= x5,8 <= 1
 0 <= x5,9 <= 1
 0 <= x5,11 <= 1
 0 <= x6,1 <= 1
 0 <= x6,2 <= 1
 0 <= x6,5 <= 1
 0 <= x6,6 <= 1
 0 <= x6,7 <= 1
 0 <= x6,8 <= 1
 0 <= x6,9 <= 1
 0 <= x6,10 <= 1
 0 <= x6,11 <= 1
 0 <= x7,0 <= 1
 0 <= x7,3 <= 1
 0 <= x7,6 <= 1
 0 <= x7,7 <= 1
 0 <= x7,9 <= 1
 0 <= x7,10 <= 1
 0 <= x8,0 <= 1
 0 <= x8,3 <= 1
 0 <= x8,4 <= 1
 0 <= x8,5 <= 1
 0 <= x8,6 <= 1
 0 <= x8,8 <= 1
 0 <= x8,11 <= 1
 0 <= x9,1 <= 1
 0 <= x9,2 <= 1
 0 <= x9,3 <= 1
 0 <= x9,5 <= 1
 0 <= x9,6 <= 1
 0 <= x9,7 <= 1
 0 <= x9,9 <= 1
 0 <= x10,1 <= 1
 0 <= x10,2 <= 1
 0 <= x10,3 <= 1
 0 <= x10,6 <= 1
 0 <= x10,7 <= 1
 0 <= x10,10 <= 1
 0 <= x10,11 <= 1
 0 <= x11,0 <= 1
 0 <= x11,2 <= 1
 0 <= x11,4 <= 1
 0 <= x11,5 <= 1
 0 <= x11,6 <= 1
 0 <= x11,8 <= 1
 0 <= x11,10 <= 1
 0 <= x11,11 <= 1
End
